18:12:11 INFO: starting simulation...
18:12:11 INFO: num_compartments: 3
18:12:11 INFO: num_products: 3
18:12:11 INFO: num_destinations: 2
18:12:11 INFO: capacity_compartments: [810.15958051 841.62956452 758.18094778]
18:12:11 INFO: size_package: [20.10827605 23.92946954 23.96293089]
18:12:11 INFO: demand: [array([ 8., 10.,  7.]), array([8., 1., 9.])]
18:12:11 INFO: simulation end
18:12:11 INFO: getting data from instance...
18:12:11 INFO: SimpleTruckLoadingProblem
18:12:11 INFO: Academic license - for non-commercial use only - expires 2021-08-08
18:12:11 INFO: Using license file C:\Users\54498\gurobi.lic
18:12:11 INFO: Changed value of parameter MIPgap to 0.001
18:12:11 INFO:    Prev: 0.0001  Min: 0.0  Max: inf  Default: 0.0001
18:12:11 INFO: Changed value of parameter TimeLimit to 5.0
18:12:11 INFO:    Prev: inf  Min: 0.0  Max: inf  Default: inf
18:12:11 INFO: Parameter OutputFlag unchanged
18:12:11 INFO:    Value: 1  Min: 0  Max: 1  Default: 1
18:12:11 INFO: Changed value of parameter LogFile to ./logs/gurobi.log
18:12:11 INFO:    Prev:   Default: 
18:12:11 INFO: Gurobi Optimizer version 9.1.2 build v9.1.2rc0 (win64)
18:12:11 INFO: Thread count: 4 physical cores, 8 logical processors, using up to 8 threads
18:12:11 INFO: Optimize a model with 9 rows, 19 columns and 42 nonzeros
18:12:11 INFO: Model fingerprint: 0x83c170d3
18:12:11 INFO: Variable types: 1 continuous, 18 integer (0 binary)
18:12:11 INFO: Coefficient statistics:
18:12:11 INFO:   Matrix range     [1e+00, 2e+01]
18:12:11 INFO:   Objective range  [1e+00, 1e+00]
18:12:11 INFO:   Bounds range     [0e+00, 0e+00]
18:12:11 INFO:   RHS range        [8e+02, 8e+02]
18:12:11 INFO: Found heuristic solution: objective -0.0000000
18:12:11 INFO: Presolve time: 0.00s
18:12:11 INFO: Presolved: 9 rows, 19 columns, 42 nonzeros
18:12:11 INFO: Variable types: 1 continuous, 18 integer (0 binary)
18:12:11 INFO: 
18:12:11 INFO: Root relaxation: objective 2.488704e+00, 15 iterations, 0.00 seconds
18:12:11 INFO: 
18:12:11 INFO:     Nodes    |    Current Node    |     Objective Bounds      |     Work
18:12:11 INFO:  Expl Unexpl |  Obj  Depth IntInf | Incumbent    BestBd   Gap | It/Node Time
18:12:11 INFO: 
18:12:11 INFO:      0     0    2.48870    0    8   -0.00000    2.48870      -     -    0s
18:12:11 INFO: H    0     0                       2.1250000    2.48870  17.1%     -    0s
18:12:11 INFO: H    0     0                       2.1428571    2.48870  16.1%     -    0s
18:12:11 INFO: H    0     0                       2.3750000    2.48870  4.79%     -    0s
18:12:11 INFO:      0     0    2.46003    0    9    2.37500    2.46003  3.58%     -    0s
18:12:11 INFO:      0     0    2.46003    0    9    2.37500    2.46003  3.58%     -    0s
18:12:11 INFO: H    0     0                       2.4000000    2.46003  2.50%     -    0s
18:12:11 INFO:      0     0    2.44566    0    9    2.40000    2.44566  1.90%     -    0s
18:12:11 INFO:      0     0    2.44136    0   11    2.40000    2.44136  1.72%     -    0s
18:12:11 INFO:      0     0    2.43783    0    8    2.40000    2.43783  1.58%     -    0s
18:12:11 INFO:      0     0    2.43783    0    6    2.40000    2.43783  1.58%     -    0s
18:12:11 INFO:      0     0    2.43783    0    9    2.40000    2.43783  1.58%     -    0s
18:12:11 INFO:      0     0    2.43783    0    9    2.40000    2.43783  1.58%     -    0s
18:12:11 INFO:      0     0    2.43783    0   11    2.40000    2.43783  1.58%     -    0s
18:12:11 INFO:      0     0    2.43167    0    9    2.40000    2.43167  1.32%     -    0s
18:12:11 INFO:      0     0    2.42943    0    9    2.40000    2.42943  1.23%     -    0s
18:12:11 INFO:      0     0    2.42943    0    9    2.40000    2.42943  1.23%     -    0s
18:12:11 INFO:      0     0    2.42943    0    9    2.40000    2.42943  1.23%     -    0s
18:12:11 INFO:      0     0    2.42943    0   10    2.40000    2.42943  1.23%     -    0s
18:12:11 INFO:      0     0    2.42943    0   10    2.40000    2.42943  1.23%     -    0s
18:12:11 INFO:      0     0    2.42943    0   10    2.40000    2.42943  1.23%     -    0s
18:12:11 INFO:      0     2    2.42943    0    6    2.40000    2.42943  1.23%     -    0s
18:12:11 INFO: H 3359  1300                       2.4000000    2.42857  1.19%   2.1    0s
18:12:11 INFO: H 3361  1235                       2.4285714    2.42857  0.00%   2.1    0s
18:12:11 INFO: 
18:12:11 INFO: Cutting planes:
18:12:11 INFO:   Gomory: 6
18:12:11 INFO:   MIR: 9
18:12:11 INFO:   StrongCG: 4
18:12:11 INFO:   Inf proof: 1
18:12:11 INFO: 
18:12:11 INFO: Explored 3361 nodes (7165 simplex iterations) in 0.19 seconds
18:12:11 INFO: Thread count was 8 (of 8 available processors)
18:12:11 INFO: 
18:12:11 INFO: Solution count 7: 2.42857 2.4 2.4 ... -0
18:12:11 INFO: 
18:12:11 INFO: Optimal solution found (tolerance 1.00e-03)
18:12:11 INFO: Best objective 2.428571428571e+00, best bound 2.428571428571e+00, gap 0.0000%
18:12:11 INFO: starting simulation...
18:12:11 INFO: num_compartments: 3
18:12:11 INFO: num_products: 6
18:12:11 INFO: num_destinations: 4
18:12:11 INFO: capacity_compartments: [3319.31523809 3022.78982612 3341.00392158]
18:12:11 INFO: size_package: [20.90862817 15.23981882 20.58854088 17.59252447 19.15101197 17.83525082]
18:12:11 INFO: demand: [array([20., 16., 11., 18., 22., 14.]), array([ 9., 11., 19., 20., 15., 19.]), array([20., 13.,  8., 17., 15., 12.]), array([11., 12., 13., 11., 11., 13.])]
18:12:11 INFO: simulation end
18:12:11 INFO: getting data from instance...
18:12:11 INFO: SimpleTruckLoadingProblem
18:12:11 INFO: Changed value of parameter MIPgap to 0.001
18:12:11 INFO:    Prev: 0.0001  Min: 0.0  Max: inf  Default: 0.0001
18:12:11 INFO: Changed value of parameter TimeLimit to 5.0
18:12:11 INFO:    Prev: inf  Min: 0.0  Max: inf  Default: inf
18:12:11 INFO: Parameter OutputFlag unchanged
18:12:11 INFO:    Value: 1  Min: 0  Max: 1  Default: 1
18:12:11 INFO: Changed value of parameter LogFile to ./logs/gurobi.log
18:12:11 INFO:    Prev:   Default: 
18:12:11 INFO: Gurobi Optimizer version 9.1.2 build v9.1.2rc0 (win64)
18:12:11 INFO: Thread count: 4 physical cores, 8 logical processors, using up to 8 threads
18:12:11 INFO: Optimize a model with 27 rows, 73 columns and 168 nonzeros
18:12:11 INFO: Model fingerprint: 0x57b58ea4
18:12:11 INFO: Variable types: 1 continuous, 72 integer (0 binary)
18:12:11 INFO: Coefficient statistics:
18:12:11 INFO:   Matrix range     [1e+00, 2e+01]
18:12:11 INFO:   Objective range  [1e+00, 1e+00]
18:12:11 INFO:   Bounds range     [0e+00, 0e+00]
18:12:11 INFO:   RHS range        [3e+03, 3e+03]
18:12:11 INFO: Found heuristic solution: objective -0.0000000
18:12:11 INFO: Presolve time: 0.00s
18:12:11 INFO: Presolved: 27 rows, 73 columns, 168 nonzeros
18:12:11 INFO: Variable types: 1 continuous, 72 integer (0 binary)
18:12:11 INFO: 
18:12:11 INFO: Root relaxation: objective 1.489923e+00, 33 iterations, 0.00 seconds
18:12:11 INFO: 
18:12:11 INFO:     Nodes    |    Current Node    |     Objective Bounds      |     Work
18:12:11 INFO:  Expl Unexpl |  Obj  Depth IntInf | Incumbent    BestBd   Gap | It/Node Time
18:12:11 INFO: 
18:12:11 INFO:      0     0    1.48992    0   26   -0.00000    1.48992      -     -    0s
18:12:11 INFO: H    0     0                       1.2500000    1.48992  19.2%     -    0s
18:12:11 INFO: H    0     0                       1.4444444    1.48992  3.15%     -    0s
18:12:11 INFO: H    0     0                       1.4545455    1.48992  2.43%     -    0s
18:12:11 INFO:      0     0    1.46922    0   17    1.45455    1.46922  1.01%     -    0s
18:12:11 INFO: H    0     0                       1.4545455    1.46922  1.01%     -    0s
18:12:11 INFO:      0     0    1.46192    0   14    1.45455    1.46192  0.51%     -    0s
18:12:11 INFO:      0     0    1.46177    0   13    1.45455    1.46177  0.50%     -    0s
18:12:11 INFO:      0     0    1.46172    0   13    1.45455    1.46172  0.49%     -    0s
18:12:11 INFO:      0     0    1.46162    0   16    1.45455    1.46162  0.49%     -    0s
18:12:11 INFO:      0     0    1.46150    0   16    1.45455    1.46150  0.48%     -    0s
18:12:11 INFO:      0     0    1.46150    0   17    1.45455    1.46150  0.48%     -    0s
18:12:11 INFO:      0     0    1.46150    0   17    1.45455    1.46150  0.48%     -    0s
18:12:11 INFO:      0     0    1.46150    0   17    1.45455    1.46150  0.48%     -    0s
18:12:11 INFO:      0     2    1.46150    0   15    1.45455    1.46150  0.48%     -    0s
18:12:11 INFO: H  695   550                       1.4545455    1.46150  0.48%   1.3    0s
18:12:11 INFO: 
18:12:11 INFO: Cutting planes:
18:12:11 INFO:   Gomory: 15
18:12:11 INFO:   MIR: 20
18:12:11 INFO:   StrongCG: 3
18:12:11 INFO: 
18:12:11 INFO: Explored 1072 nodes (1515 simplex iterations) in 0.19 seconds
18:12:11 INFO: Thread count was 8 (of 8 available processors)
18:12:11 INFO: 
18:12:11 INFO: Solution count 6: 1.45455 1.45455 1.45455 ... -0
18:12:11 INFO: 
18:12:11 INFO: Optimal solution found (tolerance 1.00e-03)
18:12:11 INFO: Best objective 1.454545458347e+00, best bound 1.455707794307e+00, gap 0.0799%
18:12:17 INFO: starting simulation...
18:12:17 INFO: num_compartments: 3
18:12:17 INFO: num_products: 9
18:12:17 INFO: num_destinations: 6
18:12:17 INFO: capacity_compartments: [7848.9610433  7355.25522804 6810.27815238]
18:12:17 INFO: size_package: [17.77977507 19.54622076 17.05410345 17.01378711 20.1403506  15.87229369
 19.83585532 18.62176212 22.07686622]
18:12:17 INFO: demand: [array([13., 13., 13., 11., 13., 10., 12., 10., 11.]), array([ 5.,  7., 15.,  7., 12., 11., 12.,  9., 11.]), array([ 3.,  3.,  7.,  5.,  4.,  5., 17.,  6., 29.]), array([20., 17., 21., 10., 26., 24., 21., 16., 24.]), array([13., 13., 14., 13., 11., 12., 10., 10., 13.]), array([12., 14., 13.,  9.,  5.,  9., 13., 12.,  9.])]
18:12:17 INFO: simulation end
18:12:17 INFO: getting data from instance...
18:12:17 INFO: SimpleTruckLoadingProblem
18:12:17 INFO: Changed value of parameter MIPgap to 0.001
18:12:17 INFO:    Prev: 0.0001  Min: 0.0  Max: inf  Default: 0.0001
18:12:17 INFO: Changed value of parameter TimeLimit to 5.0
18:12:17 INFO:    Prev: inf  Min: 0.0  Max: inf  Default: inf
18:12:17 INFO: Parameter OutputFlag unchanged
18:12:17 INFO:    Value: 1  Min: 0  Max: 1  Default: 1
18:12:17 INFO: Changed value of parameter LogFile to ./logs/gurobi.log
18:12:17 INFO:    Prev:   Default: 
18:12:17 INFO: Gurobi Optimizer version 9.1.2 build v9.1.2rc0 (win64)
18:12:17 INFO: Thread count: 4 physical cores, 8 logical processors, using up to 8 threads
18:12:17 INFO: Optimize a model with 57 rows, 163 columns and 378 nonzeros
18:12:17 INFO: Model fingerprint: 0x5bc2b814
18:12:17 INFO: Variable types: 1 continuous, 162 integer (0 binary)
18:12:17 INFO: Coefficient statistics:
18:12:17 INFO:   Matrix range     [1e+00, 3e+01]
18:12:17 INFO:   Objective range  [1e+00, 1e+00]
18:12:17 INFO:   Bounds range     [0e+00, 0e+00]
18:12:17 INFO:   RHS range        [7e+03, 8e+03]
18:12:17 INFO: Found heuristic solution: objective -0.0000000
18:12:17 INFO: Presolve time: 0.00s
18:12:17 INFO: Presolved: 57 rows, 163 columns, 378 nonzeros
18:12:17 INFO: Variable types: 1 continuous, 162 integer (0 binary)
18:12:17 INFO: 
18:12:17 INFO: Root relaxation: objective 1.776525e+00, 69 iterations, 0.00 seconds
18:12:17 INFO: 
18:12:17 INFO:     Nodes    |    Current Node    |     Objective Bounds      |     Work
18:12:17 INFO:  Expl Unexpl |  Obj  Depth IntInf | Incumbent    BestBd   Gap | It/Node Time
18:12:17 INFO: 
18:12:17 INFO:      0     0    1.77653    0   56   -0.00000    1.77653      -     -    0s
18:12:17 INFO: H    0     0                       0.7692308    1.77653   131%     -    0s
18:12:17 INFO: H    0     0                       1.1000000    1.77653  61.5%     -    0s
18:12:17 INFO: H    0     0                       1.6666667    1.77653  6.59%     -    0s
18:12:17 INFO:      0     0    1.76196    0   52    1.66667    1.76196  5.72%     -    0s
18:12:17 INFO: H    0     0                       1.7142857    1.76196  2.78%     -    0s
18:12:17 INFO: H    0     0                       1.7272727    1.76196  2.01%     -    0s
18:12:17 INFO:      0     0    1.75288    0   29    1.72727    1.75288  1.48%     -    0s
18:12:17 INFO:      0     0    1.75288    0   31    1.72727    1.75288  1.48%     -    0s
18:12:17 INFO:      0     0    1.75155    0   23    1.72727    1.75155  1.41%     -    0s
18:12:17 INFO: H    0     0                       1.7307692    1.75155  1.20%     -    0s
18:12:17 INFO:      0     0    1.75155    0   25    1.73077    1.75155  1.20%     -    0s
18:12:17 INFO:      0     0    1.74981    0   18    1.73077    1.74981  1.10%     -    0s
18:12:17 INFO:      0     0    1.74939    0    9    1.73077    1.74939  1.08%     -    0s
18:12:17 INFO:      0     0    1.74851    0   10    1.73077    1.74851  1.03%     -    0s
18:12:17 INFO:      0     0    1.74643    0   12    1.73077    1.74643  0.91%     -    0s
18:12:17 INFO:      0     0    1.74458    0   13    1.73077    1.74458  0.80%     -    0s
18:12:17 INFO:      0     0    1.74427    0    7    1.73077    1.74427  0.78%     -    0s
18:12:17 INFO:      0     0    1.74377    0    7    1.73077    1.74377  0.75%     -    0s
18:12:17 INFO:      0     0    1.74321    0   11    1.73077    1.74321  0.72%     -    0s
18:12:17 INFO:      0     0    1.74280    0    9    1.73077    1.74280  0.70%     -    0s
18:12:17 INFO:      0     0    1.74252    0    6    1.73077    1.74252  0.68%     -    0s
18:12:17 INFO: H    0     0                       1.7333333    1.74252  0.53%     -    0s
18:12:17 INFO:      0     0    1.74231    0    8    1.73333    1.74231  0.52%     -    0s
18:12:17 INFO:      0     0    1.73486    0    5    1.73333    1.73486  0.09%     -    0s
18:12:17 INFO: 
18:12:17 INFO: Cutting planes:
18:12:17 INFO:   MIR: 58
18:12:17 INFO: 
18:12:17 INFO: Explored 1 nodes (217 simplex iterations) in 0.08 seconds
18:12:17 INFO: Thread count was 8 (of 8 available processors)
18:12:17 INFO: 
18:12:17 INFO: Solution count 8: 1.73333 1.73077 1.72727 ... -0
18:12:17 INFO: 
18:12:17 INFO: Optimal solution found (tolerance 1.00e-03)
18:12:17 INFO: Best objective 1.733333333333e+00, best bound 1.734864044005e+00, gap 0.0883%
18:12:46 INFO: starting simulation...
18:12:46 INFO: num_compartments: 3
18:12:46 INFO: num_products: 12
18:12:46 INFO: num_destinations: 8
18:12:46 INFO: capacity_compartments: [12656.89395674 11897.55445891 11767.08281857]
18:12:46 INFO: size_package: [15.73623669 23.92393188 21.40176617 16.43332317 19.1412692  15.49108924
 17.0937335  22.30708124 21.5112277  19.78978297 17.74780505 21.52223125]
18:12:46 INFO: demand: [array([20., 10.,  2.,  2.,  3., 20., 12., 18.,  4.,  6., 15., 19.]), array([14.,  8., 25., 13., 23., 10., 22., 25., 22., 15., 22., 10.]), array([ 8., 10., 19.,  4., 19., 18., 21.,  9.,  5.,  6., 18., 21.]), array([16., 13., 10., 19., 19.,  7.,  9., 18., 19., 11., 10., 12.]), array([13., 10., 16., 13., 15., 11., 17., 15., 12., 17., 15., 16.]), array([ 9.,  9., 21., 13., 17., 11., 26., 17., 23.,  9., 17.,  9.]), array([25., 16.,  8.,  9., 18.,  9., 11., 16., 17., 19., 19., 14.]), array([ 9.,  5.,  6., 10.,  5.,  6.,  6.,  8.,  4.,  4.,  8.,  5.])]
18:12:46 INFO: simulation end
18:12:46 INFO: getting data from instance...
18:12:46 INFO: SimpleTruckLoadingProblem
18:12:46 INFO: Changed value of parameter MIPgap to 0.001
18:12:46 INFO:    Prev: 0.0001  Min: 0.0  Max: inf  Default: 0.0001
18:12:46 INFO: Changed value of parameter TimeLimit to 5.0
18:12:46 INFO:    Prev: inf  Min: 0.0  Max: inf  Default: inf
18:12:46 INFO: Parameter OutputFlag unchanged
18:12:46 INFO:    Value: 1  Min: 0  Max: 1  Default: 1
18:12:46 INFO: Changed value of parameter LogFile to ./logs/gurobi.log
18:12:46 INFO:    Prev:   Default: 
18:12:46 INFO: Gurobi Optimizer version 9.1.2 build v9.1.2rc0 (win64)
18:12:46 INFO: Thread count: 4 physical cores, 8 logical processors, using up to 8 threads
18:12:46 INFO: Optimize a model with 99 rows, 289 columns and 672 nonzeros
18:12:46 INFO: Model fingerprint: 0x38adf088
18:12:46 INFO: Variable types: 1 continuous, 288 integer (0 binary)
18:12:46 INFO: Coefficient statistics:
18:12:46 INFO:   Matrix range     [1e+00, 3e+01]
18:12:46 INFO:   Objective range  [1e+00, 1e+00]
18:12:46 INFO:   Bounds range     [0e+00, 0e+00]
18:12:46 INFO:   RHS range        [1e+04, 1e+04]
18:12:46 INFO: Found heuristic solution: objective -0.0000000
18:12:46 INFO: Presolve time: 0.00s
18:12:46 INFO: Presolved: 99 rows, 289 columns, 672 nonzeros
18:12:46 INFO: Variable types: 1 continuous, 288 integer (0 binary)
18:12:46 INFO: 
18:12:46 INFO: Root relaxation: objective 1.482329e+00, 133 iterations, 0.00 seconds
18:12:46 INFO: 
18:12:46 INFO:     Nodes    |    Current Node    |     Objective Bounds      |     Work
18:12:46 INFO:  Expl Unexpl |  Obj  Depth IntInf | Incumbent    BestBd   Gap | It/Node Time
18:12:46 INFO: 
18:12:46 INFO:      0     0    1.48233    0   98   -0.00000    1.48233      -     -    0s
18:12:46 INFO: H    0     0                       1.4000000    1.48233  5.88%     -    0s
18:12:46 INFO: H    0     0                       1.4444444    1.48233  2.62%     -    0s
18:12:46 INFO:      0     0    1.46536    0   58    1.44444    1.46536  1.45%     -    0s
18:12:46 INFO:      0     0    1.45535    0   31    1.44444    1.45535  0.75%     -    0s
18:12:46 INFO:      0     0    1.45535    0   32    1.44444    1.45535  0.75%     -    0s
18:12:46 INFO:      0     0    1.45490    0   26    1.44444    1.45490  0.72%     -    0s
18:12:47 INFO:      0     0    1.45440    0   26    1.44444    1.45440  0.69%     -    0s
18:12:47 INFO:      0     0    1.45421    0   24    1.44444    1.45421  0.68%     -    0s
18:12:47 INFO:      0     0    1.45409    0   26    1.44444    1.45409  0.67%     -    0s
18:12:47 INFO:      0     0    1.45389    0   29    1.44444    1.45389  0.65%     -    0s
18:12:47 INFO:      0     0    1.45384    0   27    1.44444    1.45384  0.65%     -    0s
18:12:47 INFO:      0     0    1.45357    0   30    1.44444    1.45357  0.63%     -    0s
18:12:47 INFO:      0     0    1.45345    0   34    1.44444    1.45345  0.62%     -    0s
18:12:47 INFO:      0     0    1.45340    0   34    1.44444    1.45340  0.62%     -    0s
18:12:47 INFO:      0     0    1.45340    0   34    1.44444    1.45340  0.62%     -    0s
18:12:47 INFO: H    0     0                       1.4444444    1.45340  0.62%     -    0s
18:12:47 INFO:      0     2    1.45340    0   34    1.44444    1.45340  0.62%     -    0s
18:12:49 INFO: 
18:12:49 INFO: Cutting planes:
18:12:49 INFO:   Gomory: 14
18:12:49 INFO:   MIR: 92
18:12:49 INFO: 
18:12:49 INFO: Explored 30079 nodes (101184 simplex iterations) in 2.90 seconds
18:12:49 INFO: Thread count was 8 (of 8 available processors)
18:12:49 INFO: 
18:12:49 INFO: Solution count 4: 1.44444 1.44444 1.4 -0 
18:12:49 INFO: 
18:12:49 INFO: Optimal solution found (tolerance 1.00e-03)
18:12:49 INFO: Best objective 1.444444448381e+00, best bound 1.445870999620e+00, gap 0.0988%
18:14:13 INFO: starting simulation...
18:14:13 INFO: num_compartments: 3
18:14:13 INFO: num_products: 15
18:14:13 INFO: num_destinations: 10
18:14:13 INFO: capacity_compartments: [20897.50901887 21476.02293588 20390.81679369]
18:14:13 INFO: size_package: [21.94764977 18.90958016 15.46296203 19.39421533 18.71980312 20.97003242
 16.3421817  17.27712897 23.14782417 17.64325527 19.10320205 24.35972176
 17.75552463 16.45289959 22.02020129]
18:14:13 INFO: demand: [array([10., 10.,  8.,  9.,  8.,  9., 10.,  8.,  9., 11., 11.,  9., 10.,
       10.,  9.]), array([20.,  5., 19.,  2., 20., 16., 11., 16., 11., 18.,  3., 12., 20.,
       21.,  6.]), array([10., 11., 10., 10., 11., 10., 11., 10., 11., 10., 10., 11., 11.,
       11., 11.]), array([13., 25., 24., 18., 19., 11., 22., 12., 18., 11., 10., 19., 17.,
       20., 22.]), array([18.,  6., 13., 13., 13., 12., 12., 16., 11., 12., 14.,  6., 11.,
        6.,  7.]), array([ 5.,  7.,  7.,  9., 10., 12.,  9., 12.,  8., 11.,  9., 10.,  7.,
       13., 11.]), array([ 7., 17., 29.,  4., 11., 22.,  4., 22., 18., 22., 17., 27., 12.,
       18.,  4.]), array([11.,  9., 18., 17.,  5.,  4.,  5.,  6., 14., 11., 11., 10.,  3.,
        9., 18.]), array([23., 17.,  7., 26., 13., 18.,  7., 11., 11., 12.,  3., 19.,  6.,
       18., 18.]), array([11.,  9.,  9., 12.,  9.,  8., 12.,  7., 12.,  9.,  9., 13., 10.,
       11.,  9.])]
18:14:13 INFO: simulation end
18:14:13 INFO: getting data from instance...
18:14:13 INFO: SimpleTruckLoadingProblem
18:14:13 INFO: Changed value of parameter MIPgap to 0.001
18:14:13 INFO:    Prev: 0.0001  Min: 0.0  Max: inf  Default: 0.0001
18:14:13 INFO: Changed value of parameter TimeLimit to 5.0
18:14:13 INFO:    Prev: inf  Min: 0.0  Max: inf  Default: inf
18:14:13 INFO: Parameter OutputFlag unchanged
18:14:13 INFO:    Value: 1  Min: 0  Max: 1  Default: 1
18:14:13 INFO: Changed value of parameter LogFile to ./logs/gurobi.log
18:14:13 INFO:    Prev:   Default: 
18:14:13 INFO: Gurobi Optimizer version 9.1.2 build v9.1.2rc0 (win64)
18:14:13 INFO: Thread count: 4 physical cores, 8 logical processors, using up to 8 threads
18:14:13 INFO: Optimize a model with 153 rows, 451 columns and 1050 nonzeros
18:14:13 INFO: Model fingerprint: 0x75852dc9
18:14:13 INFO: Variable types: 1 continuous, 450 integer (0 binary)
18:14:13 INFO: Coefficient statistics:
18:14:13 INFO:   Matrix range     [1e+00, 3e+01]
18:14:13 INFO:   Objective range  [1e+00, 1e+00]
18:14:13 INFO:   Bounds range     [0e+00, 0e+00]
18:14:13 INFO:   RHS range        [2e+04, 2e+04]
18:14:13 INFO: Found heuristic solution: objective -0.0000000
18:14:13 INFO: Presolve time: 0.00s
18:14:13 INFO: Presolved: 153 rows, 451 columns, 1050 nonzeros
18:14:13 INFO: Variable types: 1 continuous, 450 integer (0 binary)
18:14:13 INFO: 
18:14:13 INFO: Root relaxation: objective 1.791256e+00, 206 iterations, 0.00 seconds
18:14:13 INFO: 
18:14:13 INFO:     Nodes    |    Current Node    |     Objective Bounds      |     Work
18:14:13 INFO:  Expl Unexpl |  Obj  Depth IntInf | Incumbent    BestBd   Gap | It/Node Time
18:14:13 INFO: 
18:14:13 INFO:      0     0    1.79126    0  152   -0.00000    1.79126      -     -    0s
18:14:13 INFO: H    0     0                       1.4285714    1.79126  25.4%     -    0s
18:14:13 INFO: H    0     0                       1.6666667    1.79126  7.48%     -    0s
18:14:13 INFO:      0     0    1.77639    0  147    1.66667    1.77639  6.58%     -    0s
18:14:13 INFO: H    0     0                       1.6666667    1.77639  6.58%     -    0s
18:14:13 INFO: H    0     0                       1.7500000    1.77639  1.51%     -    0s
18:14:13 INFO:      0     0    1.76269    0   55    1.75000    1.76269  0.73%     -    0s
18:14:13 INFO:      0     0    1.76260    0   53    1.75000    1.76260  0.72%     -    0s
18:14:13 INFO:      0     0    1.76090    0   36    1.75000    1.76090  0.62%     -    0s
18:14:13 INFO:      0     0    1.76070    0   36    1.75000    1.76070  0.61%     -    0s
18:14:13 INFO:      0     0    1.76070    0   37    1.75000    1.76070  0.61%     -    0s
18:14:13 INFO:      0     0    1.76070    0   37    1.75000    1.76070  0.61%     -    0s
18:14:13 INFO:      0     2    1.76070    0   37    1.75000    1.76070  0.61%     -    0s
18:14:13 INFO: 
18:14:13 INFO: Cutting planes:
18:14:13 INFO:   Gomory: 30
18:14:13 INFO:   MIR: 123
18:14:13 INFO: 
18:14:13 INFO: Explored 3252 nodes (33002 simplex iterations) in 0.83 seconds
18:14:13 INFO: Thread count was 8 (of 8 available processors)
18:14:13 INFO: 
18:14:13 INFO: Solution count 5: 1.75 1.66667 1.66667 ... -0
18:14:13 INFO: 
18:14:13 INFO: Optimal solution found (tolerance 1.00e-03)
18:14:13 INFO: Best objective 1.750000000000e+00, best bound 1.750729792431e+00, gap 0.0417%
